
		nb_weeks = 2;
		H = {};
		nb_personnel = 10;
		personnel_id = [1,2,3,4,5,6,7,8,9,10,];
		schedule = [|
			FREE, FREE, FREE, FREE, FREE, FREE, FREE, JANW, JANW, JANW, JANW, JANW, JANW, JANW,  |
			JANW, JANW, JANW, JANW, JANW, JANW, JANW, FREE, FREE, FREE, FREE, FREE, FREE, FREE,  |
			FREE, FREE, FREE, FREE, FREE, FREE, FREE, FREE, JAWE, JAWE, FREE, FREE, FREE, FREE,  |
			FREE, FREE, FREE, FREE, FREE, FREE, FREE, FREE, JAWE, JAWE, FREE, FREE, FREE, FREE,  |
			FREE, JAWE, JAWE, FREE, FREE, FREE, FREE, FREE, FREE, FREE, FREE, FREE, FREE, FREE,  |
			FREE, JAWE, JAWE, FREE, FREE, FREE, FREE, FREE, FREE, FREE, FREE, FREE, FREE, FREE,  |
			FREE, FREE, FREE, FREE, FREE, FREE, FREE, FREE, FREE, FREE, FREE, FREE, FREE, FREE,  |
			FREE, FREE, FREE, FREE, FREE, FREE, FREE, FREE, FREE, FREE, FREE, FREE, FREE, FREE,  |
			FREE, FREE, FREE, FREE, FREE, FREE, FREE, FREE, FREE, FREE, FREE, FREE, FREE, FREE,  |
			FREE, FREE, FREE, FREE, FREE, FREE, FREE, FREE, FREE, FREE, FREE, FREE, FREE, FREE,  |];
		F = [{1,2,3,4,5,6,7,},{},{},{},{},{},{},{},{},{},];
		min_balance = 4;
	